p cnf 13 49
1 -3 -12 0
7 -8 -11 0
2 -7 11 0
4 7 -9 0
3 -5 7 0
2 8 10 0
-6 7 8 0
5 -11 -12 0
-6 -7 9 0
-3 -6 8 0
-5 7 -12 0
1 6 7 0
1 -4 -10 0
3 7 -10 0
11 -12 -13 0
-1 -11 12 0
-4 -12 -13 0
4 9 -10 0
-7 8 -12 0
2 4 -7 0
6 -9 -12 0
3 8 11 0
3 4 8 0
-3 -4 -13 0
2 4 -12 0
-1 4 5 0
5 -10 12 0
1 -9 13 0
1 -7 -9 0
8 -11 -13 0
-3 -10 -11 0
1 8 -11 0
1 -5 -6 0
3 -6 -12 0
4 -8 -9 0
1 -10 -13 0
-3 5 -11 0
5 9 11 0
4 5 12 0
7 -11 -12 0
-9 -10 12 0
3 -4 8 0
-1 3 -13 0
4 -6 -7 0
6 11 12 0
-1 -6 -12 0
-2 -5 -10 0
2 -7 -8 0
-1 -2 3 0
